min: c;

c = 3.56624322151571 * u4_t1_h1 + 3.66575900467213 * u4_t1_h2 + 3.51571579015051 * u4_t1_h3 + 2.67910237226354 * u4_t1_h4 + 2.67910237226354 * u4_t10_h4 + 4.05129991201991 * u4_t1_h5 + 4.05129991201991 * u4_t10_h5 + 3.54810070470264 * u4_t1_h6 + 3.54810070470264 * u4_t10_h6 + 4.57571005097082 * u4_t1_h7 + 4.57571005097082 * u4_t10_h7 + 5.79132212639558 * u4_t1_h8 + 5.79132212639558 * u4_t9_h8 + 5.79132212639558 * u4_t10_h8 + 4.76588599812779 * u4_t9_h9 + 4.76588599812779 * u4_t10_h9 + 5.40049306649208 * u4_t9_h10 + 5.40049306649208 * u4_t10_h10 + 3.97633607076077 * u4_t2_h11 + 3.97633607076077 * u4_t4_h11 + 3.97633607076077 * u4_t9_h11 + 3.97633607076077 * u4_t10_h11 + 6.64381460208346 * u4_t2_h12 + 6.64381460208346 * u4_t3_h12 + 6.64381460208346 * u4_t4_h12 + 6.64381460208346 * u4_t8_h12 + 6.64381460208346 * u4_t9_h12 + 6.64381460208346 * u4_t10_h12 + 4.67508325746046 * u4_t2_h13 + 4.67508325746046 * u4_t3_h13 + 4.67508325746046 * u4_t4_h13 + 4.67508325746046 * u4_t8_h13 + 4.67508325746046 * u4_t9_h13 + 5.04790570941994 * u4_t2_h14 + 5.04790570941994 * u4_t3_h14 + 5.04790570941994 * u4_t4_h14 + 5.04790570941994 * u4_t8_h14 + 5.04790570941994 * u4_t9_h14 + 6.20497011378062 * u4_t2_h15 + 6.20497011378062 * u4_t3_h15 + 6.20497011378062 * u4_t4_h15 + 6.20497011378062 * u4_t8_h15 + 6.20497011378062 * u4_t9_h15 + 5.66944012764069 * u4_t2_h16 + 5.66944012764069 * u4_t3_h16 + 5.66944012764069 * u4_t4_h16 + 5.66944012764069 * u4_t5_h16 + 5.66944012764069 * u4_t8_h16 + 5.66944012764069 * u4_t9_h16 + 6.75545470549669 * u4_t2_h17 + 6.75545470549669 * u4_t3_h17 + 6.75545470549669 * u4_t5_h17 + 6.75545470549669 * u4_t8_h17 + 6.75545470549669 * u4_t9_h17 + 6.55241284560354 * u4_t2_h18 + 6.55241284560354 * u4_t3_h18 + 6.55241284560354 * u4_t5_h18 + 6.55241284560354 * u4_t8_h18 + 6.55241284560354 * u4_t9_h18 + 5.82674037410558 * u4_t2_h19 + 5.82674037410558 * u4_t3_h19 + 5.82674037410558 * u4_t6_h19 + 5.82674037410558 * u4_t8_h19 + 5.82674037410558 * u4_t9_h19 + 6.04261734594422 * u4_t2_h20 + 6.04261734594422 * u4_t6_h20 + 6.04261734594422 * u4_t9_h20 + 5.05966048005336 * u4_t6_h21 + 5.18324742472157 * u4_t6_h22 + 5.18324742472157 * u4_t7_h22 + 5.20597370976574 * u4_t6_h23 + 5.20597370976574 * u4_t7_h23;
0 <= u4_t1_h1 <= 1;
0 <= u4_t1_h2 <= 1;
0 <= u4_t1_h3 <= 1;
0 <= u4_t1_h4 <= 1;
0 <= u4_t1_h5 <= 1;
0 <= u4_t1_h6 <= 1;
0 <= u4_t1_h7 <= 1;
0 <= u4_t1_h8 <= 1;
u4_t1_h1 + u4_t1_h2 + u4_t1_h3 + u4_t1_h4 + u4_t1_h5 + u4_t1_h6 + u4_t1_h7 + u4_t1_h8 = 1;
0 <= u4_t2_h11 <= 1;
0 <= u4_t2_h12 <= 1;
0 <= u4_t2_h13 <= 1;
0 <= u4_t2_h14 <= 1;
0 <= u4_t2_h15 <= 1;
0 <= u4_t2_h16 <= 1;
0 <= u4_t2_h17 <= 1;
0 <= u4_t2_h18 <= 1;
0 <= u4_t2_h19 <= 1;
0 <= u4_t2_h20 <= 1;
u4_t2_h11 + u4_t2_h12 + u4_t2_h13 + u4_t2_h14 + u4_t2_h15 + u4_t2_h16 + u4_t2_h17 + u4_t2_h18 + u4_t2_h19 + u4_t2_h20 = 2;
0 <= u4_t3_h12 <= 1;
0 <= u4_t3_h13 <= 1;
0 <= u4_t3_h14 <= 1;
0 <= u4_t3_h15 <= 1;
0 <= u4_t3_h16 <= 1;
0 <= u4_t3_h17 <= 1;
0 <= u4_t3_h18 <= 1;
0 <= u4_t3_h19 <= 1;
u4_t3_h12 + u4_t3_h13 + u4_t3_h14 + u4_t3_h15 + u4_t3_h16 + u4_t3_h17 + u4_t3_h18 + u4_t3_h19 = 3;
0 <= u4_t4_h11 <= 1;
0 <= u4_t4_h12 <= 1;
0 <= u4_t4_h13 <= 1;
0 <= u4_t4_h14 <= 1;
0 <= u4_t4_h15 <= 1;
0 <= u4_t4_h16 <= 1;
u4_t4_h11 + u4_t4_h12 + u4_t4_h13 + u4_t4_h14 + u4_t4_h15 + u4_t4_h16 = 3;
0 <= u4_t5_h16 <= 1;
0 <= u4_t5_h17 <= 1;
0 <= u4_t5_h18 <= 1;
u4_t5_h16 + u4_t5_h17 + u4_t5_h18 = 1;
0 <= u4_t6_h19 <= 1;
0 <= u4_t6_h20 <= 1;
0 <= u4_t6_h21 <= 1;
0 <= u4_t6_h22 <= 1;
0 <= u4_t6_h23 <= 1;
u4_t6_h19 + u4_t6_h20 + u4_t6_h21 + u4_t6_h22 + u4_t6_h23 = 3;
0 <= u4_t7_h22 <= 1;
0 <= u4_t7_h23 <= 1;
u4_t7_h22 + u4_t7_h23 = 1;
0 <= u4_t8_h12 <= 1;
0 <= u4_t8_h13 <= 1;
0 <= u4_t8_h14 <= 1;
0 <= u4_t8_h15 <= 1;
0 <= u4_t8_h16 <= 1;
0 <= u4_t8_h17 <= 1;
0 <= u4_t8_h18 <= 1;
0 <= u4_t8_h19 <= 1;
u4_t8_h12 + u4_t8_h13 + u4_t8_h14 + u4_t8_h15 + u4_t8_h16 + u4_t8_h17 + u4_t8_h18 + u4_t8_h19 = 2;
0 <= u4_t9_h8 <= 1;
0 <= u4_t9_h9 <= 1;
0 <= u4_t9_h10 <= 1;
0 <= u4_t9_h11 <= 1;
0 <= u4_t9_h12 <= 1;
0 <= u4_t9_h13 <= 1;
0 <= u4_t9_h14 <= 1;
0 <= u4_t9_h15 <= 1;
0 <= u4_t9_h16 <= 1;
0 <= u4_t9_h17 <= 1;
0 <= u4_t9_h18 <= 1;
0 <= u4_t9_h19 <= 1;
0 <= u4_t9_h20 <= 1;
u4_t9_h8 + u4_t9_h9 + u4_t9_h10 + u4_t9_h11 + u4_t9_h12 + u4_t9_h13 + u4_t9_h14 + u4_t9_h15 + u4_t9_h16 + u4_t9_h17 + u4_t9_h18 + u4_t9_h19 + u4_t9_h20 = 2;
0 <= u4_t10_h4 <= 1;
0 <= u4_t10_h5 <= 1;
0 <= u4_t10_h6 <= 1;
0 <= u4_t10_h7 <= 1;
0 <= u4_t10_h8 <= 1;
0 <= u4_t10_h9 <= 1;
0 <= u4_t10_h10 <= 1;
0 <= u4_t10_h11 <= 1;
0 <= u4_t10_h12 <= 1;
u4_t10_h4 + u4_t10_h5 + u4_t10_h6 + u4_t10_h7 + u4_t10_h8 + u4_t10_h9 + u4_t10_h10 + u4_t10_h11 + u4_t10_h12 = 2;
